p td 30 90
4 1
5 3
6 3
7 3
7 6
7 5
8 6
9 7
9 8
10 3
10 7
11 8
11 5
12 4
13 2
13 6
14 7
14 2
14 9
15 14
15 11
15 5
15 10
15 9
16 12
16 6
17 13
17 15
18 11
18 14
18 7
19 18
19 17
19 16
19 3
19 13
20 15
20 10
20 1
21 7
21 4
21 17
22 8
22 3
23 21
23 7
23 1
23 3
23 9
24 14
24 2
24 11
24 7
24 5
24 22
25 6
25 18
25 5
25 4
26 18
26 13
26 22
27 16
27 17
27 21
27 11
27 22
27 19
27 7
27 5
27 13
27 26
28 8
28 1
28 22
28 15
28 2
28 10
29 9
29 21
29 28
29 5
29 12
30 5
30 11
30 7
30 16
30 3
30 14
30 4
